Route #1: 89 28 64 58 55 65 62 60 52 54 61 57 59 72 115 105 9 
Route #2: 2 1 5 88 96 110 100 16 23 31 36 21 26 27 47 45 37 42 107 
Route #3: 114 18 118 119 69 68 80 75 71 74 77 79 84 117 81 
Route #4: 92 86 82 10 7 13 11 4 3 14 12 83 113 85 112 109 50 
Route #5: 93 97 90 111 91 46 48 40 43 22 19 25 20 67 76 73 104 
Route #6: 98 41 39 15 6 8 32 34 29 44 51 49 17 24 35 33 30 108 
Route #7: 101 116 103 95 94 102 99 106 38 66 63 56 53 78 70 87 120 
cost 2434.3
execution_time 64.21
